pair_coeff     15     15 lj/cut/coul/debye      0.10425138      5.00000000     12.50000000     31.41504539
pair_coeff     15     16 lj/cut/coul/debye      0.07013971      5.00000000     12.50000000     31.41504539
pair_coeff     15     17 lj/cut/coul/debye      0.07052299      5.00000000     12.50000000     31.41504539
pair_coeff     15     18 lj/cut/coul/debye      0.06515711      5.00000000     12.50000000     31.41504539
pair_coeff     15     19 lj/cut/coul/debye      0.13682993      5.00000000     12.50000000     31.41504539
pair_coeff     15     20 lj/cut/coul/debye      0.05787485      5.00000000     12.50000000     31.41504539
pair_coeff     15     21 lj/cut/coul/debye      0.07243938      5.00000000     12.50000000     31.41504539
pair_coeff     15     22 lj/cut/coul/debye      0.08853702      5.00000000     12.50000000     31.41504539
pair_coeff     15     23 lj/cut/coul/debye      0.09236979      5.00000000     12.50000000     31.41504539
pair_coeff     15     24 lj/cut/coul/debye      0.17554092      5.00000000     12.50000000     31.41504539
pair_coeff     15     25 lj/cut/coul/debye      0.18818907      5.00000000     12.50000000     31.41504539
pair_coeff     15     26 lj/cut/coul/debye      0.05020930      5.00000000     12.50000000     31.41504539
pair_coeff     15     27 lj/cut/coul/debye      0.15101119      5.00000000     12.50000000     31.41504539
pair_coeff     15     28 lj/cut/coul/debye      0.18435630      5.00000000     12.50000000     31.41504539
pair_coeff     15     29 lj/cut/coul/debye      0.07780526      5.00000000     12.50000000     31.41504539
pair_coeff     15     30 lj/cut/coul/debye      0.07703870      5.00000000     12.50000000     31.41504539
pair_coeff     15     31 lj/cut/coul/debye      0.08892029      5.00000000     12.50000000     31.41504539
pair_coeff     15     32 lj/cut/coul/debye      0.14641186      5.00000000     12.50000000     31.41504539
pair_coeff     15     33 lj/cut/coul/debye      0.12878111      5.00000000     12.50000000     31.41504539
pair_coeff     15     34 lj/cut/coul/debye      0.15484396      5.00000000     12.50000000     31.41504539
pair_coeff     16     16 lj/cut/coul/debye      0.05940795      5.00000000     12.50000000     31.41504539
pair_coeff     16     17 lj/cut/coul/debye      0.06285745      5.00000000     12.50000000     31.41504539
pair_coeff     16     18 lj/cut/coul/debye      0.08777046      5.00000000     12.50000000     31.41504539
pair_coeff     16     19 lj/cut/coul/debye      0.09850222      5.00000000     12.50000000     31.41504539
pair_coeff     16     20 lj/cut/coul/debye      0.08700391      5.00000000     12.50000000     31.41504539
pair_coeff     16     21 lj/cut/coul/debye      0.06898988      5.00000000     12.50000000     31.41504539
pair_coeff     16     22 lj/cut/coul/debye      0.06592367      5.00000000     12.50000000     31.41504539
pair_coeff     16     23 lj/cut/coul/debye      0.08278786      5.00000000     12.50000000     31.41504539
pair_coeff     16     24 lj/cut/coul/debye      0.13912960      5.00000000     12.50000000     31.41504539
pair_coeff     16     25 lj/cut/coul/debye      0.15446068      5.00000000     12.50000000     31.41504539
pair_coeff     16     26 lj/cut/coul/debye      0.02261335      5.00000000     12.50000000     31.41504539
pair_coeff     16     27 lj/cut/coul/debye      0.11958246      5.00000000     12.50000000     31.41504539
pair_coeff     16     28 lj/cut/coul/debye      0.15254430      5.00000000     12.50000000     31.41504539
pair_coeff     16     29 lj/cut/coul/debye      0.06515711      5.00000000     12.50000000     31.41504539
pair_coeff     16     30 lj/cut/coul/debye      0.06209089      5.00000000     12.50000000     31.41504539
pair_coeff     16     31 lj/cut/coul/debye      0.07282265      5.00000000     12.50000000     31.41504539
pair_coeff     16     32 lj/cut/coul/debye      0.13069750      5.00000000     12.50000000     31.41504539
pair_coeff     16     33 lj/cut/coul/debye      0.12111557      5.00000000     12.50000000     31.41504539
pair_coeff     16     34 lj/cut/coul/debye      0.11766608      5.00000000     12.50000000     31.41504539
pair_coeff     17     17 lj/cut/coul/debye      0.06439056      5.00000000     12.50000000     31.41504539
pair_coeff     17     18 lj/cut/coul/debye      0.06439056      5.00000000     12.50000000     31.41504539
pair_coeff     17     19 lj/cut/coul/debye      0.09926878      5.00000000     12.50000000     31.41504539
pair_coeff     17     20 lj/cut/coul/debye      0.05787485      5.00000000     12.50000000     31.41504539
pair_coeff     17     21 lj/cut/coul/debye      0.06554039      5.00000000     12.50000000     31.41504539
pair_coeff     17     22 lj/cut/coul/debye      0.06669022      5.00000000     12.50000000     31.41504539
pair_coeff     17     23 lj/cut/coul/debye      0.07972164      5.00000000     12.50000000     31.41504539
pair_coeff     17     24 lj/cut/coul/debye      0.12418179      5.00000000     12.50000000     31.41504539
pair_coeff     17     25 lj/cut/coul/debye      0.14334565      5.00000000     12.50000000     31.41504539
pair_coeff     17     26 lj/cut/coul/debye      0.04637653      5.00000000     12.50000000     31.41504539
pair_coeff     17     27 lj/cut/coul/debye      0.11306675      5.00000000     12.50000000     31.41504539
pair_coeff     17     28 lj/cut/coul/debye      0.14372892      5.00000000     12.50000000     31.41504539
pair_coeff     17     29 lj/cut/coul/debye      0.05864140      5.00000000     12.50000000     31.41504539
pair_coeff     17     30 lj/cut/coul/debye      0.06055779      5.00000000     12.50000000     31.41504539
pair_coeff     17     31 lj/cut/coul/debye      0.07205610      5.00000000     12.50000000     31.41504539
pair_coeff     17     32 lj/cut/coul/debye      0.11766608      5.00000000     12.50000000     31.41504539
pair_coeff     17     33 lj/cut/coul/debye      0.10578449      5.00000000     12.50000000     31.41504539
pair_coeff     17     34 lj/cut/coul/debye      0.10846743      5.00000000     12.50000000     31.41504539
pair_coeff     18     18 lj/cut/coul/debye      0.04637653      5.00000000     12.50000000     31.41504539
pair_coeff     18     19 lj/cut/coul/debye      0.09236979      5.00000000     12.50000000     31.41504539
pair_coeff     18     20 lj/cut/coul/debye      0.03909427      5.00000000     12.50000000     31.41504539
pair_coeff     18     21 lj/cut/coul/debye      0.05595846      5.00000000     12.50000000     31.41504539
pair_coeff     18     22 lj/cut/coul/debye      0.06094106      5.00000000     12.50000000     31.41504539
pair_coeff     18     23 lj/cut/coul/debye      0.08892029      5.00000000     12.50000000     31.41504539
pair_coeff     18     24 lj/cut/coul/debye      0.12149885      5.00000000     12.50000000     31.41504539
pair_coeff     18     25 lj/cut/coul/debye      0.13031422      5.00000000     12.50000000     31.41504539
pair_coeff     18     26 lj/cut/coul/debye      0.06439056      5.00000000     12.50000000     31.41504539
pair_coeff     18     27 lj/cut/coul/debye      0.09850222      5.00000000     12.50000000     31.41504539
pair_coeff     18     28 lj/cut/coul/debye      0.13338044      5.00000000     12.50000000     31.41504539
pair_coeff     18     29 lj/cut/coul/debye      0.05097586      5.00000000     12.50000000     31.41504539
pair_coeff     18     30 lj/cut/coul/debye      0.06247417      5.00000000     12.50000000     31.41504539
pair_coeff     18     31 lj/cut/coul/debye      0.06898988      5.00000000     12.50000000     31.41504539
pair_coeff     18     32 lj/cut/coul/debye      0.10885070      5.00000000     12.50000000     31.41504539
pair_coeff     18     33 lj/cut/coul/debye      0.10578449      5.00000000     12.50000000     31.41504539
pair_coeff     18     34 lj/cut/coul/debye      0.09505273      5.00000000     12.50000000     31.41504539
pair_coeff     19     19 lj/cut/coul/debye      0.20850276      5.00000000     12.50000000     31.41504539
pair_coeff     19     20 lj/cut/coul/debye      0.08700391      5.00000000     12.50000000     31.41504539
pair_coeff     19     21 lj/cut/coul/debye      0.10923398      5.00000000     12.50000000     31.41504539
pair_coeff     19     22 lj/cut/coul/debye      0.12111557      5.00000000     12.50000000     31.41504539
pair_coeff     19     23 lj/cut/coul/debye      0.13797977      5.00000000     12.50000000     31.41504539
pair_coeff     19     24 lj/cut/coul/debye      0.21080242      5.00000000     12.50000000     31.41504539
pair_coeff     19     25 lj/cut/coul/debye      0.22345057      5.00000000     12.50000000     31.41504539
pair_coeff     19     26 lj/cut/coul/debye      0.07473904      5.00000000     12.50000000     31.41504539
pair_coeff     19     27 lj/cut/coul/debye      0.19125529      5.00000000     12.50000000     31.41504539
pair_coeff     19     28 lj/cut/coul/debye      0.22230073      5.00000000     12.50000000     31.41504539
pair_coeff     19     29 lj/cut/coul/debye      0.11766608      5.00000000     12.50000000     31.41504539
pair_coeff     19     30 lj/cut/coul/debye      0.10961726      5.00000000     12.50000000     31.41504539
pair_coeff     19     31 lj/cut/coul/debye      0.11919919      5.00000000     12.50000000     31.41504539
pair_coeff     19     32 lj/cut/coul/debye      0.18972218      5.00000000     12.50000000     31.41504539
pair_coeff     19     33 lj/cut/coul/debye      0.15944328      5.00000000     12.50000000     31.41504539
pair_coeff     19     34 lj/cut/coul/debye      0.19010546      5.00000000     12.50000000     31.41504539
pair_coeff     20     20 lj/cut/coul/debye      0.03487822      5.00000000     12.50000000     31.41504539
pair_coeff     20     21 lj/cut/coul/debye      0.05442535      5.00000000     12.50000000     31.41504539
pair_coeff     20     22 lj/cut/coul/debye      0.04675981      5.00000000     12.50000000     31.41504539
pair_coeff     20     23 lj/cut/coul/debye      0.08240458      5.00000000     12.50000000     31.41504539
pair_coeff     20     24 lj/cut/coul/debye      0.12533162      5.00000000     12.50000000     31.41504539
pair_coeff     20     25 lj/cut/coul/debye      0.13759649      5.00000000     12.50000000     31.41504539
pair_coeff     20     26 lj/cut/coul/debye      0.06898988      5.00000000     12.50000000     31.41504539
pair_coeff     20     27 lj/cut/coul/debye      0.11076709      5.00000000     12.50000000     31.41504539
pair_coeff     20     28 lj/cut/coul/debye      0.13644666      5.00000000     12.50000000     31.41504539
pair_coeff     20     29 lj/cut/coul/debye      0.04829292      5.00000000     12.50000000     31.41504539
pair_coeff     20     30 lj/cut/coul/debye      0.05672501      5.00000000     12.50000000     31.41504539
pair_coeff     20     31 lj/cut/coul/debye      0.06669022      5.00000000     12.50000000     31.41504539
pair_coeff     20     32 lj/cut/coul/debye      0.11459986      5.00000000     12.50000000     31.41504539
pair_coeff     20     33 lj/cut/coul/debye      0.10693432      5.00000000     12.50000000     31.41504539
pair_coeff     20     34 lj/cut/coul/debye      0.10233499      5.00000000     12.50000000     31.41504539
pair_coeff     21     21 lj/cut/coul/debye      0.05902468      5.00000000     12.50000000     31.41504539
pair_coeff     21     22 lj/cut/coul/debye      0.06362400      5.00000000     12.50000000     31.41504539
pair_coeff     21     23 lj/cut/coul/debye      0.07588887      5.00000000     12.50000000     31.41504539
pair_coeff     21     24 lj/cut/coul/debye      0.14066271      5.00000000     12.50000000     31.41504539
pair_coeff     21     25 lj/cut/coul/debye      0.15484396      5.00000000     12.50000000     31.41504539
pair_coeff     21     26 lj/cut/coul/debye      0.04944275      5.00000000     12.50000000     31.41504539
pair_coeff     21     27 lj/cut/coul/debye      0.12648145      5.00000000     12.50000000     31.41504539
pair_coeff     21     28 lj/cut/coul/debye      0.15714362      5.00000000     12.50000000     31.41504539
pair_coeff     21     29 lj/cut/coul/debye      0.06630694      5.00000000     12.50000000     31.41504539
pair_coeff     21     30 lj/cut/coul/debye      0.05710829      5.00000000     12.50000000     31.41504539
pair_coeff     21     31 lj/cut/coul/debye      0.07282265      5.00000000     12.50000000     31.41504539
pair_coeff     21     32 lj/cut/coul/debye      0.11919919      5.00000000     12.50000000     31.41504539
pair_coeff     21     33 lj/cut/coul/debye      0.11383331      5.00000000     12.50000000     31.41504539
pair_coeff     21     34 lj/cut/coul/debye      0.11766608      5.00000000     12.50000000     31.41504539
pair_coeff     22     22 lj/cut/coul/debye      0.08585408      5.00000000     12.50000000     31.41504539
pair_coeff     22     23 lj/cut/coul/debye      0.08240458      5.00000000     12.50000000     31.41504539
pair_coeff     22     24 lj/cut/coul/debye      0.14487875      5.00000000     12.50000000     31.41504539
pair_coeff     22     25 lj/cut/coul/debye      0.15944328      5.00000000     12.50000000     31.41504539
pair_coeff     22     26 lj/cut/coul/debye      0.04407687      5.00000000     12.50000000     31.41504539
pair_coeff     22     27 lj/cut/coul/debye      0.12993095      5.00000000     12.50000000     31.41504539
pair_coeff     22     28 lj/cut/coul/debye      0.15829345      5.00000000     12.50000000     31.41504539
pair_coeff     22     29 lj/cut/coul/debye      0.07167282      5.00000000     12.50000000     31.41504539
pair_coeff     22     30 lj/cut/coul/debye      0.06975644      5.00000000     12.50000000     31.41504539
pair_coeff     22     31 lj/cut/coul/debye      0.07972164      5.00000000     12.50000000     31.41504539
pair_coeff     22     32 lj/cut/coul/debye      0.13108078      5.00000000     12.50000000     31.41504539
pair_coeff     22     33 lj/cut/coul/debye      0.11536642      5.00000000     12.50000000     31.41504539
pair_coeff     22     34 lj/cut/coul/debye      0.12954767      5.00000000     12.50000000     31.41504539
pair_coeff     23     23 lj/cut/coul/debye      0.11689952      5.00000000     12.50000000     31.41504539
pair_coeff     23     24 lj/cut/coul/debye      0.15867673      5.00000000     12.50000000     31.41504539
pair_coeff     23     25 lj/cut/coul/debye      0.17400782      5.00000000     12.50000000     31.41504539
pair_coeff     23     26 lj/cut/coul/debye      0.05174241      5.00000000     12.50000000     31.41504539
pair_coeff     23     27 lj/cut/coul/debye      0.15254430      5.00000000     12.50000000     31.41504539
pair_coeff     23     28 lj/cut/coul/debye      0.18282319      5.00000000     12.50000000     31.41504539
pair_coeff     23     29 lj/cut/coul/debye      0.08623735      5.00000000     12.50000000     31.41504539
pair_coeff     23     30 lj/cut/coul/debye      0.08087147      5.00000000     12.50000000     31.41504539
pair_coeff     23     31 lj/cut/coul/debye      0.09275306      5.00000000     12.50000000     31.41504539
pair_coeff     23     32 lj/cut/coul/debye      0.15254430      5.00000000     12.50000000     31.41504539
pair_coeff     23     33 lj/cut/coul/debye      0.13491355      5.00000000     12.50000000     31.41504539
pair_coeff     23     34 lj/cut/coul/debye      0.13721321      5.00000000     12.50000000     31.41504539
pair_coeff     24     24 lj/cut/coul/debye      0.25066324      5.00000000     12.50000000     31.41504539
pair_coeff     24     25 lj/cut/coul/debye      0.26982710      5.00000000     12.50000000     31.41504539
pair_coeff     24     26 lj/cut/coul/debye      0.11536642      5.00000000     12.50000000     31.41504539
pair_coeff     24     27 lj/cut/coul/debye      0.23073283      5.00000000     12.50000000     31.41504539
pair_coeff     24     28 lj/cut/coul/debye      0.26216156      5.00000000     12.50000000     31.41504539
pair_coeff     24     29 lj/cut/coul/debye      0.14411220      5.00000000     12.50000000     31.41504539
pair_coeff     24     30 lj/cut/coul/debye      0.13491355      5.00000000     12.50000000     31.41504539
pair_coeff     24     31 lj/cut/coul/debye      0.15446068      5.00000000     12.50000000     31.41504539
pair_coeff     24     32 lj/cut/coul/debye      0.22153418      5.00000000     12.50000000     31.41504539
pair_coeff     24     33 lj/cut/coul/debye      0.20122049      5.00000000     12.50000000     31.41504539
pair_coeff     24     34 lj/cut/coul/debye      0.23188266      5.00000000     12.50000000     31.41504539
pair_coeff     25     25 lj/cut/coul/debye      0.28247524      5.00000000     12.50000000     31.41504539
pair_coeff     25     26 lj/cut/coul/debye      0.12916439      5.00000000     12.50000000     31.41504539
pair_coeff     25     27 lj/cut/coul/debye      0.24568064      5.00000000     12.50000000     31.41504539
pair_coeff     25     28 lj/cut/coul/debye      0.27902575      5.00000000     12.50000000     31.41504539
pair_coeff     25     29 lj/cut/coul/debye      0.16097639      5.00000000     12.50000000     31.41504539
pair_coeff     25     30 lj/cut/coul/debye      0.15024463      5.00000000     12.50000000     31.41504539
pair_coeff     25     31 lj/cut/coul/debye      0.16634227      5.00000000     12.50000000     31.41504539
pair_coeff     25     32 lj/cut/coul/debye      0.23533216      5.00000000     12.50000000     31.41504539
pair_coeff     25     33 lj/cut/coul/debye      0.21731813      5.00000000     12.50000000     31.41504539
pair_coeff     25     34 lj/cut/coul/debye      0.24836358      5.00000000     12.50000000     31.41504539
pair_coeff     26     26 lj/cut/coul/debye      0.00459933      5.00000000     12.50000000     31.41504539
pair_coeff     26     27 lj/cut/coul/debye      0.09505273      5.00000000     12.50000000     31.41504539
pair_coeff     26     28 lj/cut/coul/debye      0.12878111      5.00000000     12.50000000     31.41504539
pair_coeff     26     29 lj/cut/coul/debye      0.03717788      5.00000000     12.50000000     31.41504539
pair_coeff     26     30 lj/cut/coul/debye      0.04024410      5.00000000     12.50000000     31.41504539
pair_coeff     26     31 lj/cut/coul/debye      0.05020930      5.00000000     12.50000000     31.41504539
pair_coeff     26     32 lj/cut/coul/debye      0.10310155      5.00000000     12.50000000     31.41504539
pair_coeff     26     33 lj/cut/coul/debye      0.09965205      5.00000000     12.50000000     31.41504539
pair_coeff     26     34 lj/cut/coul/debye      0.09543600      5.00000000     12.50000000     31.41504539
pair_coeff     27     27 lj/cut/coul/debye      0.20926931      5.00000000     12.50000000     31.41504539
pair_coeff     27     28 lj/cut/coul/debye      0.25142980      5.00000000     12.50000000     31.41504539
pair_coeff     27     29 lj/cut/coul/debye      0.13223061      5.00000000     12.50000000     31.41504539
pair_coeff     27     30 lj/cut/coul/debye      0.11613297      5.00000000     12.50000000     31.41504539
pair_coeff     27     31 lj/cut/coul/debye      0.13453027      5.00000000     12.50000000     31.41504539
pair_coeff     27     32 lj/cut/coul/debye      0.21271881      5.00000000     12.50000000     31.41504539
pair_coeff     27     33 lj/cut/coul/debye      0.18818907      5.00000000     12.50000000     31.41504539
pair_coeff     27     34 lj/cut/coul/debye      0.20390343      5.00000000     12.50000000     31.41504539
pair_coeff     28     28 lj/cut/coul/debye      0.27825919      5.00000000     12.50000000     31.41504539
pair_coeff     28     29 lj/cut/coul/debye      0.16289278      5.00000000     12.50000000     31.41504539
pair_coeff     28     30 lj/cut/coul/debye      0.15407741      5.00000000     12.50000000     31.41504539
pair_coeff     28     31 lj/cut/coul/debye      0.16404261      5.00000000     12.50000000     31.41504539
pair_coeff     28     32 lj/cut/coul/debye      0.23609871      5.00000000     12.50000000     31.41504539
pair_coeff     28     33 lj/cut/coul/debye      0.21693485      5.00000000     12.50000000     31.41504539
pair_coeff     28     34 lj/cut/coul/debye      0.24108131      5.00000000     12.50000000     31.41504539
pair_coeff     29     29 lj/cut/coul/debye      0.06707350      5.00000000     12.50000000     31.41504539
pair_coeff     29     30 lj/cut/coul/debye      0.06017451      5.00000000     12.50000000     31.41504539
pair_coeff     29     31 lj/cut/coul/debye      0.07282265      5.00000000     12.50000000     31.41504539
pair_coeff     29     32 lj/cut/coul/debye      0.14296237      5.00000000     12.50000000     31.41504539
pair_coeff     29     33 lj/cut/coul/debye      0.12226540      5.00000000     12.50000000     31.41504539
pair_coeff     29     34 lj/cut/coul/debye      0.12724801      5.00000000     12.50000000     31.41504539
pair_coeff     30     30 lj/cut/coul/debye      0.06400728      5.00000000     12.50000000     31.41504539
pair_coeff     30     31 lj/cut/coul/debye      0.07512232      5.00000000     12.50000000     31.41504539
pair_coeff     30     32 lj/cut/coul/debye      0.11459986      5.00000000     12.50000000     31.41504539
pair_coeff     30     33 lj/cut/coul/debye      0.10655104      5.00000000     12.50000000     31.41504539
pair_coeff     30     34 lj/cut/coul/debye      0.11689952      5.00000000     12.50000000     31.41504539
pair_coeff     31     31 lj/cut/coul/debye      0.08125475      5.00000000     12.50000000     31.41504539
pair_coeff     31     32 lj/cut/coul/debye      0.12341523      5.00000000     12.50000000     31.41504539
pair_coeff     31     33 lj/cut/coul/debye      0.11536642      5.00000000     12.50000000     31.41504539
pair_coeff     31     34 lj/cut/coul/debye      0.13261389      5.00000000     12.50000000     31.41504539
pair_coeff     32     32 lj/cut/coul/debye      0.19393823      5.00000000     12.50000000     31.41504539
pair_coeff     32     33 lj/cut/coul/debye      0.17860714      5.00000000     12.50000000     31.41504539
pair_coeff     32     34 lj/cut/coul/debye      0.19853755      5.00000000     12.50000000     31.41504539
pair_coeff     33     33 lj/cut/coul/debye      0.15982656      5.00000000     12.50000000     31.41504539
pair_coeff     33     34 lj/cut/coul/debye      0.17707403      5.00000000     12.50000000     31.41504539
pair_coeff     34     34 lj/cut/coul/debye      0.21156897      5.00000000     12.50000000     31.41504539
